nNurses = 99;
nHours = 37;
minHours = 5;
maxHours = 10;
maxConsec = 9;
maxPresence = 9;
demand = [18, 14, 18, 20, 21, 16, 21, 24, 22, 27, 24, 24, 25, 27, 22, 21, 24, 21, 25, 20, 23, 26, 22, 25, 20, 24, 25, 20, 19, 22, 27, 27, 22, 25, 26, 25, 26];
